20
10
446514
0
0
67 31 3 10 9 3 5 19 13 18
1
0
76 13 42 240 66 1 52 6 3 114
2
0
33 33 26 12 77 48 140 70 110 14
3
0
17 43 22 14 65 8 14 88 56 104
4
0
44 53 3 0 52 10 52 23 193 0
5
0
57 29 9 38 48 17 40 89 224 0
6
0
292 4 48 22 31 128 72 38 138 76
7
0
71 14 33 53 64 125 63 44 35 21
8
0
11 100 17 59 6 205 45 23 20 10
9
0
7 59 60 23 11 51 79 66 17 47
10
0
20 86 87 74 67 128 50 21 156 67
11
0
21 43 13 3 86 18 58 21 7 20
12
0
188 1 0 10 7 11 30 38 18 111
13
0
13 7 3 17 1 30 102 89 50 2
14
0
23 80 9 26 23 16 111 10 13 209
15
0
158 22 55 37 99 43 102 1 20 19
16
0
80 9 97 14 39 38 100 1 26 66
17
0
90 3 112 37 102 10 85 79 38 18
18
0
16 29 95 6 23 6 22 9 15 19
19
0
19 73 16 32 34 25 2 85 113 16
